CapLotSizing_PM/src/Instancias/TCHSLT/25i18p2m/NBB09.dat
25 18 2
 1
      4161
      4161
    2
     3
     2
     4
     3
     3
     4
     3
     3
     4
     3
     2
     3
     2
     2
     3
     3
     2
     3
     2
     3
     3
     4
     3
     3
   3.1  26.1   897    23 
  2.2  33.2   435    21 
  3.2  49.6   384    23 
  3.3  42.4   255    16 
  2.2  13.7   847    17 
  3.5  44.1   252    22 
  1.4  21.2   911    16 
  1.1  42.0   790    23 
  4.0  26.6   330    20 
  4.4  32.0   861    20 
  4.3  15.5   684    19 
  4.7  18.0   483    20 
  3.8  11.9   947    15 
  4.4  16.0   692    24 
  3.4  31.3   775    23 
  1.7  39.7   782    24 
  3.9  14.0   858    22 
  2.9  37.2   418    19 
  3.1  44.7   784    19 
  4.7  14.4   404    23 
  1.7  24.3   769    22 
  1.3  23.5   432    23 
  1.3  14.1   662    20 
  3.1  29.7   893    24 
  3.0  14.4   868    21 
  2.2  20.5   349    25 
  3.5  11.9   947    21 
  4.8  14.3   485    20 
  1.3  16.1   244    20 
  1.4  12.4   413    24 
  1.1  31.3   496    20 
  4.4  31.2   358    22 
  1.7  30.2   440    20 
  3.6  19.4   673    20 
  3.2  20.1   544    24 
  2.3  27.7   114    24 
  4.1  19.4   376    24 
  2.7  23.2   441    17 
  3.3  47.0   647    20 
  4.8  34.9   297    20 
  4.1  46.7   567    16 
  3.0  21.0   659    20 
  1.9  41.5   168    15 
  3.4  22.7   494    25 
  1.2  36.9    88    16 
  2.7  29.3   744    20 
  2.7  11.7   859    21 
  1.2  28.5   859    24 
  2.8  32.9   627    17 
  1.7  43.5   324    25 
   43   138   158   155   175   114   163    97    71   128    41   179    63    62   157 
  131    20   105   132   114   144   170   177    26    25   102    28   151    90    47 
  123   168     2   117   179   174   129   106   145   128    77   157   160    65   117 
   98    98    52    14    64   146   172    74    19   175    51    94   167    82     8 
   16   166    70    99    85    15   114    85    53   134    85    38   142    98    57 
   73    15   175   102    32    16   107    71    19   117    49   168    70    41    82 
  125   148   134    50   102    23   116    43   101    57    24    13    29    57   161 
  179    62    12   120    43   113   128   117   173    51    16    40     5    86   173 
  122    75   173     7    67    21    42   105    37   173     5   162   103   150   174 
   60   101   103   140    11    83   142   136     0    48   159   143   178    78    28 
   54    81   156   168    63    92   135    35    88    97   136    34   146   115    24 
   44    49    88    54   106   114    87   149    28   107   165   115    18    51   169 
  135     9    62    12   136   111    85    57    43    70   115    19    40    18   109 
   19   168   108   160   146    14   168   176    99   118    66   113   176    72   121 
   13   148   106    64   144   164   171   172    38   107    80    74    88    56    96 
   91    41    41    37   138   105   121    61    52   130   108   113   169   129   104 
  135    37    63    64   120    23     2    92    12   156   158    74   151   118   159 
  153   172   116   103   158   108    41    25    94    68    19    66    28   112    80 
  113    21   135    40    74     3   115   134   151   116 
   17     6   159    91    11   167   159   138    82    13 
   10    12   135    49     8   163   178    20    14   112 
   44    46    49   125    63    21    91   113   147    89 
  135    99    37     0    48    42   116    16   126   131 
  130     6   131    57   142     3    22    32    72    58 
   33    33   106   118    23    14     0   172   131    99 
  170   123    66    97   119    33    97    71    66    95 
  158     9    44   152    19    97   178    43   140    44 
  107    50    60   172   154   163   141    17   164   165 
  168    65    48    31    45     1     5   144    19    44 
  168    25   156   154   138   169    56    42     3    33 
  156    58   176    37   104    33   105   136    25   134 
  171    68    17    47   132    76    91    75     1   151 
   36    76    12    81   159    71   173    55   135   176 
  107    12   133   125   107    30    44    49   104    64 
  115   157   138    87   102    96    39    58    20    46 
   81   146    43   169    40   146    20   173    21     9 
